n_res = 4;
rcap = [19, 20, 100, 99];
rtype = [1, 1, 2, 2];
n_tasks = 16;
modes = [ {1, 2, 3}, {4, 5, 6}, {7, 8, 9}, {10, 11, 12}, {13, 14, 15}, {16, 17, 18}, {19, 20, 21}, {22, 23, 24}, {25, 26, 27}, {28, 29, 30}, {31, 32, 33}, {34, 35, 36}, {37, 38, 39}, {40, 41, 42}, {43, 44, 45}, {46, 47, 48} ];
succ = [ {6, 11}, {4, 10}, {16}, {5, 7}, {12}, {9, 10, 13}, {8, 13, 14}, {9}, {12}, {14}, {15}, {15}, {15, 16}, {}, {}, {} ];
n_opt = 48;
dur = [1, 2, 4, 2, 3, 10, 3, 7, 9, 7, 10, 10, 1, 5, 6, 4, 7, 8, 1, 5, 9, 2, 4, 7, 3, 6, 8, 7, 8, 9, 1, 5, 9, 3, 5, 10, 5, 7, 9, 3, 5, 9, 4, 6, 9, 1, 4, 5];
rreq = [|  0,  2,  0, 10,  0,  0,  7,  0,  5,  8,  0,  7,  0,  0, 10,  5,  0,  5,  0,  0,  6,  0,  0,  9,  0,  7,  2,  6,  0,  0,  4,  0,  3,  2,  1,  0,  4,  0,  0,  0,  0,  2,  7,  0,  5,  5,  5,  3
        | 10,  0, 10,  0, 10,  9,  0,  3,  0,  0,  4,  0,  9,  8,  0,  0,  4,  0,  6,  3,  0,  7,  7,  0,  2,  0,  0,  0,  9,  9,  0,  9,  0,  0,  0,  6,  0,  9,  8,  5,  1,  0,  0,  5,  0,  0,  0,  0
        |  4,  4,  4,  5,  5,  5,  7,  5,  2,  9,  8,  7, 10, 10, 10,  6,  4,  2,  8,  5,  4,  7,  5,  2,  7,  6,  4,  5,  3,  2,  8,  5,  5,  3,  3,  2,  4,  3,  3,  9,  5,  2,  9,  7,  6,  9,  9,  9
        |  4,  3,  3,  7,  6,  5,  9,  5,  3,  2,  2,  2, 10,  9,  9,  8,  7,  5,  9,  8,  7,  7,  4,  4,  8,  6,  4,  5,  3,  1, 10,  8,  5,  8,  8,  6,  6,  5,  3,  6,  6,  5,  3,  3,  3,  7,  6,  4 |];
